91528329676207870755013,1,1,2,010,11,1,2,04,5,1,2,08,12,1,2,07,1,1,2,010,13,1,2,03,11,1,2,01,11,1,2,012,6,1,2,09,3,1,2,08,4,1,2,013,3,1,2,012,9,1,2,013,15,1,2,010,10,1,2,014,7,1,2,06,6,1,2,08,4,1,2,012,15,1,2,06,10,1,2,010,11,1,2,014,11,1,2,015,11,1,2,014,6,1,2,08,14,1,2,013,3,1,2,010,3,1,2,013,14,1,2,012,9,1,2,06,11,1,2,014,2,1,2,07,4,1,2,010,10,1,2,012,2,1,2,06,1,1,2,09,15,1,2,04,15,1,2,02,9,1,2,01,7,1,2,09,1,1,2,02,9,1,2,07,9,1,2,014,14,1,2,01,10,1,2,06,13,1,2,013,11,1,2,010,5,1,2,011,5,1,2,02,13,1,2,06,11,1,2,0